certificates/rado_a13_c265_N42.cnf
c Rad2 upper bound instance: x1 + 13*x2 - x3 = 265, interval [1,42]
p cnf 42 268
1 9 21 0
-1 -9 -21 0
1 22 0
-1 -22 0
1 23 35 0
-1 -23 -35 0
2 10 21 0
-2 -10 -21 0
2 22 23 0
-2 -22 -23 0
2 23 36 0
-2 -23 -36 0
3 11 21 0
-3 -11 -21 0
3 22 24 0
-3 -22 -24 0
3 23 37 0
-3 -23 -37 0
4 12 21 0
-4 -12 -21 0
4 22 25 0
-4 -22 -25 0
4 23 38 0
-4 -23 -38 0
5 13 21 0
-5 -13 -21 0
5 22 26 0
-5 -22 -26 0
5 23 39 0
-5 -23 -39 0
1 6 20 0
-1 -6 -20 0
6 14 21 0
-6 -14 -21 0
6 22 27 0
-6 -22 -27 0
6 23 40 0
-6 -23 -40 0
2 7 20 0
-2 -7 -20 0
7 15 21 0
-7 -15 -21 0
7 22 28 0
-7 -22 -28 0
7 23 41 0
-7 -23 -41 0
3 8 20 0
-3 -8 -20 0
8 16 21 0
-8 -16 -21 0
8 22 29 0
-8 -22 -29 0
8 23 42 0
-8 -23 -42 0
4 9 20 0
-4 -9 -20 0
9 17 21 0
-9 -17 -21 0
9 22 30 0
-9 -22 -30 0
5 10 20 0
-5 -10 -20 0
10 18 21 0
-10 -18 -21 0
10 22 31 0
-10 -22 -31 0
6 11 20 0
-6 -11 -20 0
11 19 21 0
-11 -19 -21 0
11 22 32 0
-11 -22 -32 0
7 12 20 0
-7 -12 -20 0
12 20 21 0
-12 -20 -21 0
12 22 33 0
-12 -22 -33 0
8 13 20 0
-8 -13 -20 0
13 21 0
-13 -21 0
13 22 34 0
-13 -22 -34 0
9 14 20 0
-9 -14 -20 0
14 21 22 0
-14 -21 -22 0
14 22 35 0
-14 -22 -35 0
10 15 20 0
-10 -15 -20 0
15 21 23 0
-15 -21 -23 0
15 22 36 0
-15 -22 -36 0
11 16 20 0
-11 -16 -20 0
16 21 24 0
-16 -21 -24 0
16 22 37 0
-16 -22 -37 0
12 17 20 0
-12 -17 -20 0
17 21 25 0
-17 -21 -25 0
17 22 38 0
-17 -22 -38 0
13 18 20 0
-13 -18 -20 0
18 21 26 0
-18 -21 -26 0
18 22 39 0
-18 -22 -39 0
1 19 0
-1 -19 0
14 19 20 0
-14 -19 -20 0
19 21 27 0
-19 -21 -27 0
19 22 40 0
-19 -22 -40 0
2 19 20 0
-2 -19 -20 0
15 20 0
-15 -20 0
20 21 28 0
-20 -21 -28 0
20 22 41 0
-20 -22 -41 0
3 19 21 0
-3 -19 -21 0
16 20 21 0
-16 -20 -21 0
21 29 0
-21 -29 0
21 22 42 0
-21 -22 -42 0
4 19 22 0
-4 -19 -22 0
17 20 22 0
-17 -20 -22 0
21 22 30 0
-21 -22 -30 0
5 19 23 0
-5 -19 -23 0
18 20 23 0
-18 -20 -23 0
21 23 31 0
-21 -23 -31 0
6 19 24 0
-6 -19 -24 0
19 20 24 0
-19 -20 -24 0
21 24 32 0
-21 -24 -32 0
7 19 25 0
-7 -19 -25 0
20 25 0
-20 -25 0
21 25 33 0
-21 -25 -33 0
8 19 26 0
-8 -19 -26 0
20 21 26 0
-20 -21 -26 0
21 26 34 0
-21 -26 -34 0
9 19 27 0
-9 -19 -27 0
20 22 27 0
-20 -22 -27 0
21 27 35 0
-21 -27 -35 0
10 19 28 0
-10 -19 -28 0
20 23 28 0
-20 -23 -28 0
21 28 36 0
-21 -28 -36 0
11 19 29 0
-11 -19 -29 0
20 24 29 0
-20 -24 -29 0
21 29 37 0
-21 -29 -37 0
12 19 30 0
-12 -19 -30 0
20 25 30 0
-20 -25 -30 0
21 30 38 0
-21 -30 -38 0
13 19 31 0
-13 -19 -31 0
20 26 31 0
-20 -26 -31 0
21 31 39 0
-21 -31 -39 0
1 18 32 0
-1 -18 -32 0
14 19 32 0
-14 -19 -32 0
20 27 32 0
-20 -27 -32 0
21 32 40 0
-21 -32 -40 0
2 18 33 0
-2 -18 -33 0
15 19 33 0
-15 -19 -33 0
20 28 33 0
-20 -28 -33 0
21 33 41 0
-21 -33 -41 0
3 18 34 0
-3 -18 -34 0
16 19 34 0
-16 -19 -34 0
20 29 34 0
-20 -29 -34 0
21 34 42 0
-21 -34 -42 0
4 18 35 0
-4 -18 -35 0
17 19 35 0
-17 -19 -35 0
20 30 35 0
-20 -30 -35 0
5 18 36 0
-5 -18 -36 0
18 19 36 0
-18 -19 -36 0
20 31 36 0
-20 -31 -36 0
6 18 37 0
-6 -18 -37 0
19 37 0
-19 -37 0
20 32 37 0
-20 -32 -37 0
7 18 38 0
-7 -18 -38 0
19 20 38 0
-19 -20 -38 0
20 33 38 0
-20 -33 -38 0
8 18 39 0
-8 -18 -39 0
19 21 39 0
-19 -21 -39 0
20 34 39 0
-20 -34 -39 0
9 18 40 0
-9 -18 -40 0
20 35 40 0
-20 -35 -40 0
10 18 41 0
-10 -18 -41 0
19 23 41 0
-19 -23 -41 0
20 36 41 0
-20 -36 -41 0
11 18 42 0
-11 -18 -42 0
19 24 42 0
-19 -24 -42 0
20 37 42 0
-20 -37 -42 0
