certificates/rado_a13_c265_N42.drat
-37 -38 -42 0
-19 -40 0
19 -42 0
-42 0
37 0
-19 0
1 0
24 0
-22 0
21 0
40 0
4 0
-13 0
-16 0
-29 0
-32 0
-9 0
-12 0
34 0
31 0
8 0
11 0
14 0
30 0
27 0
33 0
-26 0
-39 0
-23 0
-3 0
-6 0
-38 0
-35 0
-41 0
-25 0
5 0
18 0
0
